p wcnf 114 138 139 
1 -95 16 0 
1 108 73 0 
1 -20 -48 0 
1 56 -23 0 
1 59 -91 0 
1 -13 -107 0 
1 31 -40 0 
1 -1 -34 0 
1 -51 -78 0 
1 -57 -100 0 
1 17 -98 0 
1 52 -76 0 
1 76 61 0 
1 -95 84 0 
1 99 -67 0 
1 41 -28 0 
1 -84 -108 0 
1 -49 3 0 
1 -99 94 0 
1 54 -53 0 
1 -53 110 0 
1 55 30 0 
1 -17 -69 0 
1 1 -41 0 
1 40 58 0 
1 -84 -29 0 
1 1 29 0 
1 -26 -50 0 
1 -2 -60 0 
1 -42 88 0 
1 -106 -39 0 
1 -60 -29 0 
1 61 85 0 
1 88 6 0 
1 -70 -41 0 
1 105 1 0 
1 11 -85 0 
1 -89 -77 0 
1 5 87 0 
1 29 60 0 
1 -78 -26 0 
1 -80 -91 0 
1 -52 -83 0 
1 -13 -49 0 
1 86 -11 0 
1 84 -37 0 
1 -44 32 0 
1 -3 -110 0 
1 58 -29 0 
1 -53 -20 0 
1 -89 -70 0 
1 -42 -31 0 
1 93 112 0 
1 -44 43 0 
1 -72 -69 0 
1 109 -11 0 
1 -105 -19 0 
1 56 -78 0 
1 -86 18 0 
1 -60 5 0 
1 -77 9 0 
1 89 94 0 
1 19 20 0 
1 -67 -38 0 
1 61 -90 0 
1 -99 -81 0 
1 -34 101 0 
1 84 -64 0 
1 -24 11 0 
1 -47 91 0 
1 81 97 0 
1 64 104 0 
1 3 -23 0 
1 63 40 0 
1 -100 -38 0 
1 108 -49 0 
1 -63 -56 0 
1 -70 -28 0 
1 -105 -104 0 
1 106 15 0 
1 83 19 0 
1 5 9 0 
1 23 -7 0 
1 52 -26 0 
1 -22 -31 0 
1 -63 -12 0 
1 -77 105 0 
1 -83 -71 0 
1 6 -1 0 
1 -76 89 0 
1 -100 -95 0 
1 -24 -20 0 
1 -21 -100 0 
1 -87 -20 0 
1 72 -55 0 
1 -104 -72 0 
1 -26 112 0 
1 68 -11 0 
1 -102 -60 0 
1 -29 36 0 
1 67 -47 0 
1 -98 73 0 
1 18 77 0 
1 111 101 0 
1 -81 -57 0 
1 55 -96 0 
1 59 -95 0 
1 7 92 0 
1 25 104 0 
1 97 -82 0 
1 67 -36 0 
1 -95 54 0 
1 -73 88 0 
1 20 45 0 
1 43 23 0 
1 36 85 0 
1 52 -62 0 
1 -51 -27 0 
1 27 -73 0 
1 -107 -32 0 
1 103 96 0 
1 97 64 0 
1 96 -78 0 
1 91 -61 0 
1 -21 -81 0 
1 89 -58 0 
1 -85 10 0 
1 45 -31 0 
1 -68 36 0 
1 11 94 0 
1 -7 -111 0 
1 -86 -52 0 
1 64 -27 0 
1 -36 -72 0 
1 -41 -38 0 
1 82 86 0 
1 34 69 0 
1 -83 64 0 
